<number of tasks>
50

<cycle time>
1000

<order strength>
0.595


<task times>
1 747
2 289
3 494
4 530
5 682
6 646
7 493
8 361
9 468
10 568
11 417
12 359
13 527
14 525
15 634
16 522
17 772
18 529
19 504
20 466
21 498
22 425
23 298
24 396
25 619
26 342
27 593
28 512
29 356
30 598
31 668
32 545
33 423
34 658
35 379
36 465
37 440
38 567
39 528
40 519
41 315
42 597
43 521
44 534
45 537
46 461
47 551
48 486
49 529
50 490

<precedence relations>
1,6
2,4
2,9
2,10
3,5
3,7
3,8
3,9
3,10
4,11
5,13
6,12
7,14
8,14
9,14
10,14
11,15
12,16
13,17
14,17
14,18
14,19
15,20
16,20
17,20
17,21
17,22
18,20
18,21
18,22
19,20
20,24
20,25
21,23
21,29
21,42
21,50
22,35
22,36
23,26
24,28
25,27
25,29
25,30
25,31
26,34
27,32
28,33
29,37
30,48
30,50
31,35
31,36
31,37
31,46
31,47
32,42
33,41
35,38
36,39
37,40
38,43
39,44
40,45
41,46
42,47
43,48
44,48
45,48
46,50
47,49

<end>
